SCIP version 5.0.0 [precision: 8 byte] [memory: block] [mode: optimized] [LP solver: NONE] [GitHash: 3bbd232]
Copyright (C) 2002-2017 Konrad-Zuse-Zentrum fuer Informationstechnik Berlin (ZIB)

External codes: 
  Readline EditLine w  GNU library for command line editing (gnu.org/s/readline)
  CppAD 20160000.1     Algorithmic Differentiation of C++ algorithms developed by B. Bell (www.coin-or.org/CppAD)
  ZLIB 1.2.5           General purpose compression library by J. Gailly and M. Adler (zlib.net)
  GMP 6.1.2            GNU Multiple Precision Arithmetic Library developed by T. Granlund (gmplib.org)

user parameter file <scip.set> not found - using default parameters

read problem <../../Split_data/output/seismic-bumps/3/0_sample_seismic-bumps.logreg>
============

File name	:	../../Split_data/output/seismic-bumps/3/0_sample_seismic-bumps.logreg
Problem name 	:	0_sample_seismic-bumps
Number of data	:	2067
Number of var	:	21
The given data has linear dependence
4 sets of column vector are linearly dependent:
{ 2 3}, { 4 5 6}, { 7 8}, { 13 14 15}, 

[dim=1] time: 0.039325
[dim=2] time: 0.073948
[dim=3] time: 0.109176
[dim=4] time: 0.141795
[dim=5] time: 0.184557
[dim=6] time: 0.224636
[dim=7] time: 0.252022
[dim=8] time: 0.276646
[dim=9] time: 0.298002
[dim=10] Time of forward = 0.318503sec.
AIC: 836.4
k: 9

[dim=17] time: 0.076647
[dim=16] time: 0.098314
[dim=15] time: 0.144236
[dim=14] time: 0.187032
[dim=13] time: 0.208998
[dim=12] time: 0.225065
[dim=11] time: 0.247021
[dim=10] time: 0.288075
[dim=9] time: 0.306451
[dim=8] time: 0.324372
[dim=7] Time of backward = 0.340927sec.
AIC: 837.207
k: 8
